NAME : att48.tsp
TYPE : TOUR
DIMENSION : 48
TOUR_LENGTH : 35955.00784537334
TOUR_SECTION
1
9
38
31
44
18
7
36
28
30
6
37
19
27
43
17
20
33
46
15
12
11
23
14
25
13
47
21
39
32
48
5
29
2
26
4
35
45
24
10
42
34
41
16
22
3
40
8
-1
